(declare-const |c2'| Int)
(declare-const |x2'| Int)
(declare-const |x3'| Int)
(declare-const |c1'| Int)
(declare-const d3 Int)
(declare-const d2 Int)
(declare-const |x1'| Int)
(declare-const d1 Int)
(assert (exists
         ((havoc?1 Int) (havoc?2 Int) (phi_x3?3 Int) (phi_x2?4 Int)
            (phi_x1?5 Int) (phi_x3?6 Int) (phi_x2?7 Int) (c1?8 Int)
            (c2?9 Int) (x1?10 Int) (x2?11 Int) (x3?12 Int))
         (and (<= (+ (- d1) 1) 0) (<= (+ (- d2) 1) 0) (<= (+ (- d3) 1) 0)
                (<= (- x1?10) 0) (<= (- x2?11) 0) (<= (- x3?12) 0)
                (= (+ d1 -1) 0) (= (+ d2 -1) 0) (= (+ d3 -1) 0)
                (<= (+ (- x1?10) 1) 0) (<= (+ (- x2?11) 1) 0)
                (<= (+ (- x3?12) 1) 0)
                (or (and (= c1?8 0)
                           (or (and (= c2?9 0) (= (+ (- phi_x2?7) x2?11) 0)
                                      (= (+ (- phi_x3?6) x3?12 (- d3)) 0))
                                 (and (or (<= (+ c2?9 1) 0)
                                            (<= (+ (- c2?9) 1) 0))
                                        (= (+ (- phi_x2?7) x2?11 (- d2)) 0)
                                        (= (+ (- phi_x3?6) x3?12) 0)))
                           (= (+ (- phi_x1?5) x1?10) 0)
                           (= (+ (- phi_x2?4) phi_x2?7) 0)
                           (= (+ (- phi_x3?3) phi_x3?6) 0))
                      (and (or (<= (+ c1?8 1) 0) (<= (+ (- c1?8) 1) 0))
                             (= (+ (- phi_x1?5) x1?10 (- d1)) 0)
                             (= (+ (- phi_x2?4) x2?11) 0)
                             (= (+ (- phi_x3?3) x3?12) 0)))
                (= (+ (- havoc?1) |c2'|) 0) (= (+ (- havoc?2) |c1'|) 0)
                (= (+ |x3'| (- phi_x3?3)) 0) (= (+ |x2'| (- phi_x2?4)) 0)
                (= (+ |x1'| (- phi_x1?5)) 0))))
(check-sat)
